# Solution for model r5_t27_m5_5 Batch Number: 5
# Finished Task: 27 / 27
# Makespan: 883.0, Total Distance: 664.0, Total Time: 1.5571
# R O S F Batch
0 0 11 0.0 0.0 -1
1 1 16 0.0 0.0 -1
2 2 17 0.0 0.0 -1
3 3 9 0.0 0.0 -1
4 4 7 0.0 0.0 -1
5 3 23 503.0 542.0 2
6 0 26 551.0 583.0 0
7 4 8 132.0 161.0 0
8 4 28 161.0 193.0 0
9 3 24 177.0 215.0 0
10 1 27 336.0 373.0 0
11 0 18 331.0 353.0 0
12 3 14 331.0 363.0 0
13 2 30 772.0 803.0 4
14 3 21 396.0 425.0 0
15 2 13 576.0 606.0 1
16 1 10 271.0 295.0 0
17 2 15 506.0 536.0 0
18 0 6 508.0 530.0 0
19 1 22 597.0 623.0 2
20 3 -1 742.0 772.0 4
21 3 5 466.0 489.0 2
22 1 -1 772.0 802.0 4
23 3 31 552.0 591.0 3
24 3 12 300.0 331.0 0
25 0 -1 772.0 793.0 4
26 0 25 600.0 625.0 1
27 1 19 553.0 583.0 0
28 4 29 373.0 395.0 1
29 4 -1 488.0 526.0 3
30 2 -1 844.0 883.0 4
31 3 20 669.0 705.0 3
